Version identifier: 20.1.0.0 | 2020-11-10 | 9bedb6d68
CPXPARAM_Threads                                 1
CPXPARAM_TimeLimit                               7200
CPXPARAM_MIP_Tolerances_MIPGap                   0
Generic callback                                 0x60
1 of 1 MIP starts provided solutions.
MIP start 'm1' defined initial solution with objective 3540.4439.
Tried aggregator 1 time.
Reduced MIP has 400801 rows, 400501 columns, and 1200500 nonzeros.
Reduced MIP has 500 binaries, 0 generals, 0 SOSs, and 0 indicators.
Presolve time = 0.40 sec. (381.28 ticks)
Probing time = 0.05 sec. (50.03 ticks)
Tried aggregator 1 time.
Reduced MIP has 400801 rows, 400501 columns, and 1200500 nonzeros.
Reduced MIP has 500 binaries, 0 generals, 0 SOSs, and 0 indicators.
Presolve time = 0.40 sec. (374.78 ticks)
Probing time = 0.05 sec. (50.03 ticks)
MIP emphasis: balance optimality and feasibility.
MIP search method: dynamic search.
Parallel mode: none, using 1 thread.
Root relaxation solution time = 0.12 sec. (154.45 ticks)

        Nodes                                         Cuts/
   Node  Left     Objective  IInf  Best Integer    Best Bound    ItCnt     Gap

*     0+    0                         3540.4439     4368.0000            23.37%
      0     0     3553.8109    67     3540.4439     4368.0000        0   23.37%
      0     0     3546.9270    22     3540.4439      Fract: 1       25    0.18%
      0     0     3546.9244    25     3540.4439      Fract: 1      108    0.18%
*     0+    0                         3543.0150     3546.9244             0.11%
      0     2     3546.9244    25     3543.0150     3546.9244      108    0.11%
Elapsed time = 68.62 sec. (48193.22 ticks, tree = 0.01 MB, solutions = 2)
      1     3     3546.6609    15     3543.0150     3546.9225      966    0.11%
      2     4     3546.6343    21     3543.0150     3546.9225     1118    0.11%
      3     5     3546.6486    20     3543.0150     3546.9225     1198    0.11%
      4     6     3546.6429    20     3543.0150     3546.9225     1233    0.11%
      5     7     3546.6028    20     3543.0150     3546.9225     1381    0.11%
      6     8     3546.6328    15     3543.0150     3546.9225     1417    0.11%
      7     9     3546.6129     7     3543.0150     3546.9225     1508    0.11%
      8    10     3546.5926    40     3543.0150     3546.9225     1648    0.11%
      9    11     3546.6127     9     3543.0150     3546.9225     1649    0.11%
*    10+   10                         3545.7441     3546.9225             0.03%
     10    12     3546.5970    40     3545.7441     3546.9225     1802    0.03%
Elapsed time = 135.25 sec. (64632.09 ticks, tree = 7.41 MB, solutions = 3)
     11    13     3546.5738    15     3545.7441     3546.9225     1914    0.03%
     12    14     3546.5249    40     3545.7441     3546.9225     2205    0.03%
     14    16     3546.5434     4     3545.7441     3546.9225     2276    0.03%
     16    18     3546.4799    17     3545.7441     3546.9225     2555    0.03%
     18    20     3546.4948    17     3545.7441     3546.9225     2934    0.03%
     19    21     3546.3867    20     3545.7441     3546.9225     3320    0.03%
*    20+   16                         3546.4901     3546.9225             0.01%
     20    18     3546.4929    13     3546.4901     3546.9225     3442    0.01%
     21    17        cutoff           3546.4901     3546.9225     3569    0.01%
     23    17     3546.6487    15     3546.4901     3546.6484     4334    0.00%
     25    19     3546.6199    21     3546.4901     3546.6421     4566    0.00%
Elapsed time = 228.76 sec. (94894.76 ticks, tree = 8.56 MB, solutions = 4)
     27    21     3546.5907    20     3546.4901     3546.6421     4827    0.00%
     28    22     3546.6215    15     3546.4901     3546.6421     4892    0.00%
     30    24     3546.6023     9     3546.4901     3546.6421     4973    0.00%
     31    25     3546.5833    40     3546.4901     3546.6421     5142    0.00%
     32    26     3546.5876    40     3546.4901     3546.6421     5305    0.00%
     33    27     3546.5621    15     3546.4901     3546.6421     5512    0.00%
     34    28     3546.5369     4     3546.4901     3546.6421     5601    0.00%
     36    30     3546.5092     2     3546.4901     3546.6421     5709    0.00%
     39    29        cutoff           3546.4901     3546.6421     5887    0.00%
     41    29     3546.6067    21     3546.4901     3546.6343     6122    0.00%
Elapsed time = 299.36 sec. (112141.33 ticks, tree = 13.05 MB, solutions = 4)
     42    30     3546.5949    14     3546.4901     3546.6343     6228    0.00%
     43    31     3546.5778     4     3546.4901     3546.6343     6535    0.00%
     45    33     3546.5724    10     3546.4901     3546.6343     6612    0.00%
     49    35     3546.5708     2     3546.4901     3546.6343     6679    0.00%
     50    36     3546.5652     2     3546.4901     3546.6343     6754    0.00%
     54    40     3546.5552     4     3546.4901     3546.6343     6892    0.00%
     55    41     3546.5410     2     3546.4901     3546.6343     7037    0.00%
     58    44     3546.5337     2     3546.4901     3546.6343     7100    0.00%
     60    46     3546.5301     6     3546.4901     3546.6343     7168    0.00%
     65    51     3546.5206     2     3546.4901     3546.6343     7236    0.00%
Elapsed time = 415.74 sec. (135862.63 ticks, tree = 77.37 MB, solutions = 4)
     68    54     3546.5135     2     3546.4901     3546.6343     7300    0.00%
     70    56     3546.5125     2     3546.4901     3546.6343     7309    0.00%
     75    61     3546.5077     2     3546.4901     3546.6343     7355    0.00%
     77    63     3546.4959     4     3546.4901     3546.6343     7438    0.00%
     80    66     3546.4913     4     3546.4901     3546.6343     7486    0.00%
     83    63        cutoff           3546.4901     3546.6342     7614    0.00%
     84    64     3546.6185     6     3546.4901     3546.6326     7855    0.00%
     85    65     3546.6103     8     3546.4901     3546.6326     7974    0.00%
     86    66     3546.6004     4     3546.4901     3546.6326     8155    0.00%
     88    68     3546.5936     2     3546.4901     3546.6326     8242    0.00%
Elapsed time = 525.19 sec. (158390.48 ticks, tree = 134.85 MB, solutions = 4)
     90    70     3546.5921     2     3546.4901     3546.6326     8259    0.00%
     92    72     3546.5799     4     3546.4901     3546.6326     8396    0.00%
     93    73     3546.5671    15     3546.4901     3546.6326     8563    0.00%
     96    76     3546.5605    15     3546.4901     3546.6326     8650    0.00%
     99    79     3546.5562    15     3546.4901     3546.6326     8718    0.00%
    100    80     3546.5560    15     3546.4901     3546.6326     8720    0.00%
    102    82     3546.5514     7     3546.4901     3546.6326     8830    0.00%
    105    85     3546.5478    18     3546.4901     3546.6326     8893    0.00%
    108    88     3546.5417    13     3546.4901     3546.6326     8980    0.00%
    110    90     3546.5408    13     3546.4901     3546.6326     9001    0.00%
Elapsed time = 655.44 sec. (193215.25 ticks, tree = 205.29 MB, solutions = 4)
    115    95     3546.5368    15     3546.4901     3546.6326     9054    0.00%
    118    98     3546.5306    13     3546.4901     3546.6326     9151    0.00%
    120   100     3546.5291    13     3546.4901     3546.6326     9191    0.00%
    124   104     3546.5226    10     3546.4901     3546.6326     9371    0.00%
    125   105     3546.5136     4     3546.4901     3546.6326     9681    0.00%
    126   106     3546.5106     6     3546.4901     3546.6326     9780    0.00%
    129   109     3546.5081     4     3546.4901     3546.6326     9853    0.00%
    132   112     3546.5033     2     3546.4901     3546.6326     9976    0.00%
    134   114     3546.4993     5     3546.4901     3546.6326    10091    0.00%
    136   116     3546.4963     5     3546.4901     3546.6326    10190    0.00%
Elapsed time = 782.73 sec. (214227.56 ticks, tree = 288.53 MB, solutions = 4)
    140   120     3546.4928     5     3546.4901     3546.6326    10280    0.00%
    144   122        cutoff           3546.4901     3546.6326    10350    0.00%
    146   122     3546.6185    37     3546.4901     3546.6306    10569    0.00%
    147   123     3546.6112     8     3546.4901     3546.6306    10639    0.00%
    148   124     3546.6087     5     3546.4901     3546.6306    10813    0.00%
    150   126     3546.5917     2     3546.4901     3546.6306    10907    0.00%
    152   126        cutoff           3546.4901     3546.6306    11069    0.00%
    154   126        cutoff           3546.4901     3546.6306    11216    0.00%
    155   127     3546.5410     8     3546.4901     3546.6306    11406    0.00%
    157   127     3546.4989    25     3546.4901     3546.6306    11766    0.00%
Elapsed time = 868.59 sec. (233978.66 ticks, tree = 320.54 MB, solutions = 4)
    158   126        cutoff           3546.4901     3546.6306    11941    0.00%
    161   125     3546.5924    21     3546.4901     3546.6212    12174    0.00%
    164   126     3546.5802     8     3546.4901     3546.6212    12326    0.00%
    165   127     3546.5654     4     3546.4901     3546.6212    12512    0.00%
    167   129     3546.5597     8     3546.4901     3546.6212    12609    0.00%
    170   132     3546.5542     2     3546.4901     3546.6212    12722    0.00%
    174   136     3546.5453     4     3546.4901     3546.6212    12834    0.00%
    175   137     3546.5326     2     3546.4901     3546.6212    12952    0.00%
    178   140     3546.5261     2     3546.4901     3546.6212    13029    0.00%
    180   142     3546.5229     6     3546.4901     3546.6212    13086    0.00%
Elapsed time = 970.80 sec. (253995.70 ticks, tree = 325.90 MB, solutions = 4)
    185   147     3546.5144     2     3546.4901     3546.6212    13155    0.00%
    189   151     3546.5080     2     3546.4901     3546.6212    13211    0.00%
    194   156     3546.5031     2     3546.4901     3546.6212    13256    0.00%
    198   160     3546.4957     2     3546.4901     3546.6212    13319    0.00%
    200   162     3546.4923     4     3546.4901     3546.6212    13350    0.00%
    205   163     3546.6135    10     3546.4901     3546.6198    13548    0.00%
    206   164     3546.5988     5     3546.4901     3546.6198    13759    0.00%
    208   166     3546.5863     7     3546.4901     3546.6198    13840    0.00%
    210   168     3546.5664    10     3546.4901     3546.6198    13954    0.00%
    216   174     3546.5089     7     3546.4901     3546.6198    14239    0.00%
Elapsed time = 1122.46 sec. (271252.81 ticks, tree = 361.07 MB, solutions = 4)
    221   175     3546.6077    14     3546.4901     3546.6194    14428    0.00%
    225   179     3546.5853    15     3546.4901     3546.6194    14756    0.00%
    231   185     3546.5606    14     3546.4901     3546.6194    15141    0.00%
    240   194     3546.5490     2     3546.4901     3546.6194    15337    0.00%
    252   206     3546.5290     2     3546.4901     3546.6194    15601    0.00%
    260   214     3546.5248     2     3546.4901     3546.6194    15781    0.00%
    271   225     3546.5179     2     3546.4901     3546.6194    16054    0.00%
    280   234     3546.5120     2     3546.4901     3546.6194    16247    0.00%
    286   240     3546.4962     6     3546.4901     3546.6194    16642    0.00%
    293   241     3546.5680     4     3546.4901     3546.6181    16965    0.00%
Elapsed time = 1476.78 sec. (324868.64 ticks, tree = 376.79 MB, solutions = 4)
    296   242     3546.5341    32     3546.4901     3546.6181    17353    0.00%
    300   244     3546.5228    28     3546.4901     3546.6181    17545    0.00%
    307   243        cutoff           3546.4901     3546.6181    17839    0.00%
    312   248     3546.5690     2     3546.4901     3546.6129    18044    0.00%
    317   253     3546.5172    12     3546.4901     3546.6129    18386    0.00%
    322   256     3546.5431     9     3546.4901     3546.6112    18876    0.00%
    324   258     3546.5244     9     3546.4901     3546.6112    19248    0.00%
    329   261        cutoff           3546.4901     3546.6112    19567    0.00%
    335   265     3546.5582    35     3546.4901     3546.6093    19909    0.00%
*   338   117      integral     0     3546.5398     3546.6093    20312    0.00%
Elapsed time = 1681.63 sec. (373968.26 ticks, tree = 197.08 MB, solutions = 5)
    340   117     3546.5682     4     3546.5398     3546.6092    20608    0.00%
*   342    81      integral     0     3546.5553     3546.6092    21165    0.00%
    348    81        cutoff           3546.5553     3546.6065    21498    0.00%
    354    81     3546.5834    15     3546.5553     3546.6027    21681    0.00%
    361    84     3546.5835    15     3546.5553     3546.6026    21971    0.00%
    368    85     3546.5850     5     3546.5553     3546.6006    22296    0.00%
    372    82        cutoff           3546.5553     3546.6001    22711    0.00%
    377    83     3546.5619     7     3546.5553     3546.5979    23080    0.00%
    385    81        cutoff           3546.5553     3546.5967    23484    0.00%
    391    83        cutoff           3546.5553     3546.5953    23831    0.00%
Elapsed time = 1884.09 sec. (445030.56 ticks, tree = 118.81 MB, solutions = 6)
    397    81     3546.5780     3     3546.5553     3546.5933    24173    0.00%
    403    77     3546.5895    10     3546.5553     3546.5926    24481    0.00%
    411    81     3546.5747     8     3546.5553     3546.5921    24781    0.00%
    415    77        cutoff           3546.5553     3546.5919    25154    0.00%
    417    75        cutoff           3546.5553     3546.5906    25394    0.00%
    424    78     3546.5722    15     3546.5553     3546.5905    25672    0.00%
    433    75        cutoff           3546.5553     3546.5898    26044    0.00%
    438    74        cutoff           3546.5553     3546.5886    26407    0.00%
    443    73     3546.5848    34     3546.5553     3546.5873    26771    0.00%
    449    74        cutoff           3546.5553     3546.5865    27078    0.00%
Elapsed time = 2033.43 sec. (486382.77 ticks, tree = 86.94 MB, solutions = 6)
    457    72     3546.5772     5     3546.5553     3546.5860    27544    0.00%
    464    71        cutoff           3546.5553     3546.5858    27975    0.00%
    471    64        cutoff           3546.5553     3546.5842    28429    0.00%
    477    62     3546.5662    13     3546.5553     3546.5833    28858    0.00%
    486    61     3546.5578     4     3546.5553     3546.5827    29254    0.00%
    494    55        cutoff           3546.5553     3546.5794    29656    0.00%
    501    50        cutoff           3546.5553     3546.5777    30032    0.00%
    508    45        cutoff           3546.5553     3546.5753    30456    0.00%
    518    43        cutoff           3546.5553     3546.5721    30786    0.00%
    528    39        cutoff           3546.5553     3546.5709    31156    0.00%
Elapsed time = 2166.14 sec. (527793.21 ticks, tree = 63.57 MB, solutions = 6)
    537    34     3546.5615     2     3546.5553     3546.5670    31617    0.00%
*   538    26      integral     0     3546.5588     3546.5670    31952    0.00%
    548    17        cutoff           3546.5588     3546.5639    32279    0.00%
    566     5        cutoff           3546.5588     3546.5597    32428    0.00%

Gomory fractional cuts applied:  2
User cuts applied:  5

Root node processing (before b&c):
  Real time             =   68.60 sec. (48164.86 ticks)
Sequential b&c:
  Real time             = 2145.02 sec. (497576.56 ticks)
                          ------------
Total (root+branch&cut) = 2213.62 sec. (545741.42 ticks)
@Parameters: 
is_S_cut                                true
is_add_all_yinF                         true
is_start_value                          true
is_usercut                              true
is_visualization                        false
uc_only_rootnode                        false

data                                    Qi
fn                                      data/Qi/instance_800_500.csv
mode                                    ZLP
solver                                  cplex

p                                       50
r                                       2

EPS                                     1.0e-06
EPS_vio                                 1.0e-04
beta                                    0.10
gap                                     0.00
nodelimit                               Inf
timelimit                               7200.00


@PrintInfos
ItCnt: 32441
Current gap: 0.00 %
Termination Status: OPTIMAL
Primal Status: FEASIBLE_POINT
Solve Time: 2213.62 sec
Objective Value: 3546.558787
Number of Nodes:    572

CutInfo: [phase] num / time (sec) 
ZLP             [phase1]     0 / 0.00 [rLC]     3 / 10.23 [rUC]     5 / 8.59 [sLC]     0 / 8.78 [sUC]     4 / 1470.28 
OldSubmodular   [phase1]     0 / 0.00 [rLC]     0 / 0.00 [rUC]     0 / 0.00 [sLC]     0 / 0.00 [sUC]     0 / 0.00 
NewSubmodular   [phase1]     0 / 0.00 [rLC]     0 / 0.00 [rUC]     0 / 0.00 [sLC]     0 / 0.00 [sUC]     0 / 0.00 
PMP             [phase1]     0 / 0.00 [rLC]     5 / 7.16 [rUC]     5 / 6.01 [sLC]     5 / 7.48 [sUC]   774 / 1228.49 
Separation Round: [phase1] 0  [rLC] 5  [rUC] 5  [sLC] 5  [sUC] 774
Root Best Bound 3546.922538
Root Best Integer: 3543.015034
Best Bound: 3546.558787
Best Integer: 3546.558787

